c A SAT instance generated from a 3-CNF formula that had 21 clauses and 7 variables
p cnf 7 21
1 5 6 0
4 -1 -6 0
-3 7 2 0
4 2 5 0
-2 1 6 0
6 2 1 0
2 -4 -7 0
1 2 5 0
-2 5 1 0
7 -3 -6 0
-3 -5 -6 0
2 -7 -4 0
-1 -2 6 0
-4 -7 -5 0
5 3 7 0
3 -7 -6 0
-7 -6 -5 0
-5 4 -1 0
-4 -5 6 0
2 7 6 0
-3 4 1 0
